55524
50, 20, 7, 37, 5, 13, 51, 40, 43, 3, 6, 28, 55, 26, 49, 21, 29, 22, 10, 36, 46, 39, 16, 52, 15, 25, 11, 31, 27, 1, 33, 42, 45, 2, 14, 9, 12, 18, 30, 4, 47, 54, 34, 53, 23, 17, 48, 19, 32, 41, 44, 8, 38, 35, 24
